100
128
55
10
19
22
5
55
57
11
34
27
6
1
41
56
15
48
12
18
31
35
63
19
36
1
56
9
52
57
48
6
15
6
8
57
7
16
20
49
2
42
52
45
47
24
28
16
57
35
47
27
29
18
21
33
46
21
62
21
20
17
41
17
25
47
55
46
32
17
29
32
56
40
2
51
40
56
40
48
2
52
16
21
5
2
1
47
16
20
28
1
6
28
8
28
46
55
3
5
43
30